<instance format="XCSP3" type="CSP">
  <variables>
    <var id="x0"> 7 8 16 </var>
    <var id="x1"> 4 7 16 </var>
    <var id="x2"> 7 16 17 </var>
    <var id="x3"> 4 5 8 </var>
    <var id="x4"> 7 15 16 </var>
    <var id="x5"> 3 5 17 </var>
    <var id="x6"> 3 8 </var>
    <var id="x7"> 4 5 7 8 </var>
    <var id="x8"> 6 11 16 </var>
    <var id="x9"> 6 11 12 16 </var>
    <var id="x10"> 0 6 8 11 12 </var>
    <var id="x11"> 0 5 8 16 </var>
    <var id="x12"> 0 3 5 6 11 </var>
    <var id="x13"> 0 3 8 11 12 </var>
    <var id="x14"> 3 6 16 </var>
    <var id="x15"> 8 11 12 </var>
    <var id="x16"> 9 11 13 14 </var>
    <var id="x17"> 9 10 </var>
    <var id="x18"> 9 13 15 </var>
    <var id="x19"> 0 9 14 15 </var>
    <var id="x20"> 0 9..11 14 </var>
    <var id="x21"> 0 10 11 14 </var>
    <var id="x22"> 0 9 13..15 </var>
    <var id="x23"> 1 11 13 </var>
    <var id="x24"> 6 9 11 13 14 </var>
    <var id="x25"> 6 11 13 </var>
    <var id="x26"> 0 8 9 11 14 </var>
    <var id="x27"> 1 8 13 14 </var>
    <var id="x28"> 0 8 9 13 </var>
    <var id="x29"> 1 6 13 </var>
    <var id="x30"> 0 1 8 13 </var>
    <var id="x31"> 1 6 7 14 </var>
    <var id="x32"> 2 6 7 15 </var>
    <var id="x33"> 1 7 9 15 </var>
    <var id="x34"> 2 6 8 15 </var>
    <var id="x35"> 1 7 8 14 </var>
    <var id="x36"> 2 8 14 </var>
    <var id="x37"> 1 2 6 </var>
    <var id="x38"> 2 7 9 14 15 </var>
    <var id="x39"> 6 13 16 </var>
    <var id="x40"> 3 5 13 15 </var>
    <var id="x41"> 0 5 15 16 </var>
    <var id="x42"> 0 3 5 6 </var>
    <var id="x43"> 0 2 3 </var>
    <var id="x44"> 0 5 13 </var>
    <var id="x45"> 0 2 13 15 16 </var>
    <var id="x46"> 13 15 </var>
    <var id="x47"> 2 13 16 </var>
    <var id="x48"> 6 8 9 13 16 </var>
    <var id="x49"> 0 6 16 </var>
    <var id="x50"> 0 8 9 16 </var>
    <var id="x51"> 8 13 </var>
    <var id="x52"> 0 2 9 13 16 </var>
    <var id="x53"> 8 13 </var>
    <var id="x54"> 8 9 12 16 </var>
    <var id="x55"> 0 1 4 16 </var>
    <var id="x56"> 12 16 </var>
    <var id="x57"> 1 3 4 9 </var>
    <var id="x58"> 0 8 12 </var>
    <var id="x59"> 1 3 8 </var>
    <var id="x60"> 1 3 16 </var>
    <var id="x61"> 1 4 8 12 </var>
    <var id="x62"> 2 13 </var>
    <var id="x63"> 7 9 12 13 </var>
    <var id="x64"> 0 7 14 </var>
    <var id="x65"> 7 9 13 14 </var>
    <var id="x66"> 0 2 12 </var>
    <var id="x67"> 0 2 10 12 14 </var>
    <var id="x68"> 2 10 13 </var>
    <var id="x69"> 12 13 </var>
    <var id="x70"> 2 3 11 16 </var>
    <var id="x71"> 2 9 12 </var>
    <var id="x72"> 2 6 7 11 12 16 </var>
    <var id="x73"> 3 9 11 12 </var>
    <var id="x74"> 2 6 11 12 </var>
    <var id="x75"> 2 3 11 12 </var>
    <var id="x76"> 2 3 6 16 </var>
    <var id="x77"> 2 7 9 16 </var>
    <var id="x78"> 4 7 11 14 </var>
    <var id="x79"> 7 11 13 </var>
    <var id="x80"> 5 8 14 </var>
    <var id="x81"> 5 7 8 13 14 17 </var>
    <var id="x82"> 5 8 13 </var>
    <var id="x83"> 5 11 14 17 </var>
    <var id="x84"> 7 13 14 </var>
    <var id="x85"> 4 8 11 13 </var>
    <var id="x86"> 8 13 16 </var>
    <var id="x87"> 8 14 16 </var>
    <var id="x88"> 2 8 17 </var>
    <var id="x89"> 1 3 8 13 14 17 </var>
    <var id="x90"> 8 13 16 </var>
    <var id="x91"> 3 14 17 </var>
    <var id="x92"> 1 8 13 </var>
    <var id="x93"> 2 13 14 16 </var>
    <var id="x94"> 9 12 </var>
    <var id="x95"> 7 11..13 15 </var>
    <var id="x96"> 7 13 17 </var>
    <var id="x97"> 0 9 13 15 </var>
    <var id="x98"> 0 9 11 17 </var>
    <var id="x99"> 13 17 </var>
    <var id="x100"> 0 7 13 </var>
    <var id="x101"> 11..13 15 </var>
    <var id="x102"> 4 10 12 </var>
    <var id="x103"> 4 13 15 </var>
    <var id="x104"> 0 12 14 15 </var>
    <var id="x105"> 0 10..12 14 </var>
    <var id="x106"> 0 11 12 15 </var>
    <var id="x107"> 0 10 13 15 </var>
    <var id="x108"> 0 11 14 </var>
    <var id="x109"> 0 4 13 </var>
    <var id="x110"> 1 13 17 </var>
    <var id="x111"> 1 7 14 </var>
    <var id="x112"> 7 13 14 17 </var>
    <var id="x113"> 1 5 8 10 </var>
    <var id="x114"> 5 8 14 </var>
    <var id="x115"> 8 10 14 </var>
    <var id="x116"> 5 8 10 13 </var>
    <var id="x117"> 7 13 14 </var>
    <var id="x118"> 11 16 </var>
    <var id="x119"> 1 2 5 10 </var>
    <var id="x120"> 1 3 5 15 </var>
    <var id="x121"> 5 15 16 </var>
    <var id="x122"> 3 10 11 </var>
    <var id="x123"> 5 10 15 16 </var>
    <var id="x124"> 2 3 10 11 </var>
    <var id="x125"> 1..3 10 16 </var>
    <var id="x126"> 1 11 16 </var>
    <var id="x127"> 6 7 9 11 16 </var>
    <var id="x128"> 1 5 9 12 </var>
    <var id="x129"> 1 5 7 9 </var>
    <var id="x130"> 9 11 12 </var>
    <var id="x131"> 1 5 7 </var>
    <var id="x132"> 5 6 9 11 </var>
    <var id="x133"> 1 5 7 </var>
    <var id="x134"> 1 11 13 17 </var>
    <var id="x135"> 8 11..13 </var>
    <var id="x136"> 1 4 11 </var>
    <var id="x137"> 11 13 17 </var>
    <var id="x138"> 1 4 13 </var>
    <var id="x139"> 8 11 12 </var>
    <var id="x140"> 8 11 12 17 </var>
  </variables>
  <constraints>
    <group>
      <allDifferent> %... </allDifferent>
      <args> x0 x1 x2 x3 x4 x5 x6 x7 </args>
      <args> x8 x9 x10 x11 x12 x13 x14 x15 </args>
      <args> x16 x17 x18 x19 x20 x21 x22 </args>
      <args> x23 x24 x25 x26 x27 x28 x29 x30 </args>
      <args> x31 x32 x33 x34 x35 x36 x37 x38 </args>
      <args> x39 x40 x41 x42 x43 x44 x45 x46 </args>
      <args> x47 x48 x49 x50 x51 x52 x53 </args>
      <args> x54 x55 x56 x57 x58 x59 x60 x61 </args>
      <args> x62 x63 x64 x65 x66 x67 x68 x69 </args>
      <args> x70 x71 x72 x73 x74 x75 x76 x77 </args>
      <args> x78 x79 x80 x81 x82 x83 x84 x85 </args>
      <args> x86 x87 x88 x89 x90 x91 x92 x93 </args>
      <args> x94 x95 x96 x97 x98 x99 x100 x101 </args>
      <args> x102 x103 x104 x105 x106 x107 x108 x109 </args>
      <args> x110 x111 x112 x113 x114 x115 x116 x117 </args>
      <args> x118 x119 x120 x121 x122 x123 x124 x125 </args>
      <args> x126 x127 x128 x129 x130 x131 x132 x133 </args>
      <args> x134 x135 x136 x137 x138 x139 x140 </args>
      <args> x23 x47 x62 x70 x110 x126 x134 </args>
      <args> x0 x39 x48 x54 x63 x86 x118 x135 </args>
      <args> x1 x31 x49 x55 x64 x78 x111 x136 </args>
      <args> x2 x8 x16 x24 x65 x112 x127 x137 </args>
      <args> x3 x17 x71 x94 x102 x113 x119 x128 </args>
      <args> x4 x9 x25 x32 x56 x72 x79 x95 </args>
      <args> x18 x33 x40 x57 x103 x120 x129 x138 </args>
      <args> x19 x41 x50 x80 x87 x104 x114 x121 </args>
      <args> x20 x26 x73 x105 x115 x122 x130 x139 </args>
      <args> x10 x34 x58 x66 x74 x88 x106 x140 </args>
      <args> x27 x35 x51 x59 x81 x89 x96 x131 </args>
      <args> x11 x28 x82 x90 x97 x107 x116 x123 </args>
      <args> x5 x12 x42 x83 x91 x98 x108 x132 </args>
      <args> x6 x13 x21 x36 x43 x67 x75 x124 </args>
      <args> x14 x29 x37 x60 x68 x76 x99 x125 </args>
      <args> x7 x30 x44 x92 x100 x109 x133 </args>
      <args> x22 x38 x45 x52 x77 x84 x93 x117 </args>
      <args> x15 x46 x53 x61 x69 x85 x101 </args>
    </group>
  </constraints>
</instance>

